Si8
  5.4301
    1.0000  0.0000  0.0000
    0.0000  1.0000  0.0000
    0.0000  0.0000  1.0000
Si
  8
Direct
  0.0000  0.0000  0.0000
  0.0000  0.5000  0.5000
  0.5000  0.0000  0.5000
  0.5000  0.5000  0.0000
  0.2500  0.2500  0.2500
  0.2500  0.7500  0.7500
  0.7500  0.2500  0.7500
  0.7500  0.7500  0.2500
