hcp-Mg                                  
   11.0700000000000     
     0.9954168573566643   -0.0000191707972678   -0.0000003287302793
    -0.4977250074702841    0.8620466980830730   -0.0000003437113049
    -0.0000033060042847   -0.0000054774675628    4.5550816309689841
   Zn   Mg
    24   216
Selective dynamics
Direct
 -0.0000000000000000  0.0000000000000000  0.0058398026954901   F   F   T
  0.0000000000000000  0.5000000000000000  0.0058398018738620   F   F   T
  0.1666999999999987  0.3333000000000013  0.0058371788309606   F   F   T
  0.1666999999999987  0.8333000000000013  0.0058371786933949   F   F   T
  0.3333000000000013  0.1666999999999987  0.0058371790131207   F   F   T
  0.3333000000000013  0.6666999999999987  0.0058371789446612   F   F   T
  0.5000000000000000  0.0000000000000000  0.0058398033317925   F   F   T
  0.5000000000000000  0.5000000000000000  0.0058398025956127   F   F   T
  0.6666999999999987  0.3333000000000013  0.0058371788459131   F   F   T
  0.6666999999999987  0.8333000000000013  0.0058371791148990   F   F   T
  0.8333000000000013  0.1666999999999987  0.0058371786026129   F   F   T
  0.8333000000000013  0.6666999999999987  0.0058371780596619   F   F   T
  0.0000000000000000  0.3333000000000013  0.0439893853562114   F   F   T
  0.0000000000000000  0.8333000000000013  0.0439893839734740   F   F   T
  0.1666999999999987  0.1666999999999987  0.0439914124613641   F   F   T
  0.1666999999999987  0.6666999999999987  0.0439914127241082   F   F   T
  0.3333000000000013 -0.0000000000000000  0.0439893854538745   F   F   T
  0.3333000000000013  0.5000000000000000  0.0439893860801886   F   F   T
  0.5000000000000000  0.3333000000000013  0.0439893854816407   F   F   T
  0.5000000000000000  0.8333000000000013  0.0439893847904184   F   F   T
  0.6666999999999987  0.1666999999999987  0.0439914122064342   F   F   T
  0.6666999999999987  0.6666999999999987  0.0439914126725878   F   F   T
  0.8333000000000013  0.0000000000000000  0.0439893849287367   F   F   T
  0.8333000000000013  0.5000000000000000  0.0439893856337641   F   F   T
 -0.0000000000000000  0.0000000000000000  0.0875534058893436   F   F   T
  0.0000000000000000  0.5000000000000000  0.0875534060548680   F   F   T
  0.1666999999999987  0.3333000000000013  0.0875573671518914   F   F   T
  0.1666999999999987  0.8333000000000013  0.0875573676142534   F   F   T
  0.3333000000000013  0.1666999999999987  0.0875573676315092   F   F   T
  0.3333000000000013  0.6666999999999987  0.0875573680047795   F   F   T
  0.5000000000000000  0.0000000000000000  0.0875534059194272   F   F   T
  0.5000000000000000  0.5000000000000000  0.0875534061235982   F   F   T
  0.6666999999999987  0.3333000000000013  0.0875573675774505   F   F   T
  0.6666999999999987  0.8333000000000013  0.0875573679077125   F   F   T
  0.8333000000000013  0.1666999999999987  0.0875573672369574   F   F   T
  0.8333000000000013  0.6666999999999987  0.0875573677011261   F   F   T
 -0.0000000000000000  0.3333000000000013  0.1392617959746662   F   F   T
 -0.0000000000000000  0.8333000000000013  0.1392617965648483   F   F   T
  0.1666999999999987  0.1666999999999987  0.1392622055757561   F   F   T
  0.1666999999999987  0.6666999999999987  0.1392622048952422   F   F   T
  0.3333000000000013 -0.0000000000000000  0.1392617964771961   F   F   T
  0.3333000000000013  0.5000000000000000  0.1392617968962465   F   F   T
  0.5000000000000000  0.3333000000000013  0.1392617966901616   F   F   T
  0.5000000000000000  0.8333000000000013  0.1392617963410848   F   F   T
  0.6666999999999987  0.1666999999999987  0.1392622042933382   F   F   T
  0.6666999999999987  0.6666999999999987  0.1392622043338123   F   F   T
  0.8333000000000013 -0.0000000000000000  0.1392617968322260   F   F   T
  0.8333000000000013  0.5000000000000000  0.1392617966845798   F   F   T
 -0.0000000000000000  0.0000000000000000  0.1909377141974795   F   F   T
  0.0000000000000000  0.5000000000000000  0.1909377142774914   F   F   T
  0.1666999999999987  0.3333000000000013  0.1909383389897770   F   F   T
  0.1666999999999987  0.8333000000000013  0.1909383386656640   F   F   T
  0.3333000000000013  0.1666999999999987  0.1909383387917966   F   F   T
  0.3333000000000013  0.6666999999999987  0.1909383388065204   F   F   T
  0.5000000000000000  0.0000000000000000  0.1909377142256004   F   F   T
  0.5000000000000000  0.5000000000000000  0.1909377140515290   F   F   T
  0.6666999999999987  0.3333000000000013  0.1909383386450871   F   F   T
  0.6666999999999987  0.8333000000000013  0.1909383392268107   F   F   T
  0.8333000000000013  0.1666999999999987  0.1909383386918666   F   F   T
  0.8333000000000013  0.6666999999999987  0.1909383391141914   F   F   T
  0.0000000000000000  0.3333000000000013  0.2425365453566621   F   F   T
  0.0000000000000000  0.8333000000000013  0.2425365452278730   F   F   T
  0.1666999999999987  0.1666999999999987  0.2425367175615091   F   F   T
  0.1666999999999987  0.6666999999999987  0.2425367173421677   F   F   T
  0.3333000000000013  0.0000000000000000  0.2425365449097151   F   F   T
  0.3333000000000013  0.5000000000000000  0.2425365445817035   F   F   T
  0.5000000000000000  0.3333000000000013  0.2425365449594337   F   F   T
  0.5000000000000000  0.8333000000000013  0.2425365455120433   F   F   T
  0.6666999999999987  0.1666999999999987  0.2425367175611883   F   F   T
  0.6666999999999987  0.6666999999999987  0.2425367173933103   F   F   T
  0.8333000000000013  0.0000000000000000  0.2425365453879338   F   F   T
  0.8333000000000013  0.5000000000000000  0.2425365453097190   F   F   T
 -0.0000000000000000 -0.0000000000000000  0.2940132048845043   F   F   T
 -0.0000000000000000  0.5000000000000000  0.2940132047715239   F   F   T
  0.1666999999999987  0.3333000000000013  0.2940137680869497   F   F   T
  0.1666999999999987  0.8333000000000013  0.2940137682505792   F   F   T
  0.3333000000000013  0.1666999999999987  0.2940137681780541   F   F   T
  0.3333000000000013  0.6666999999999987  0.2940137678909984   F   F   T
  0.5000000000000000 -0.0000000000000000  0.2940132046498471   F   F   T
  0.5000000000000000  0.5000000000000000  0.2940132041736045   F   F   T
  0.6666999999999987  0.3333000000000013  0.2940137690696132   F   F   T
  0.6666999999999987  0.8333000000000013  0.2940137683751619   F   F   T
  0.8333000000000013  0.1666999999999987  0.2940137690251162   F   F   T
  0.8333000000000013  0.6666999999999987  0.2940137679196910   F   F   T
  0.0000000000000000  0.3333000000000013  0.3454332519079970   F   F   T
  0.0000000000000000  0.8333000000000013  0.3454332519224768   F   F   T
  0.1666999999999987  0.1666999999999987  0.3454333815390891   F   F   T
  0.1666999999999987  0.6666999999999987  0.3454333817827825   F   F   T
  0.3333000000000013 -0.0000000000000000  0.3454332517362492   F   F   T
  0.3333000000000013  0.5000000000000000  0.3454332513882502   F   F   T
  0.5000000000000000  0.3333000000000013  0.3454332519171442   F   F   T
  0.5000000000000000  0.8333000000000013  0.3454332520566292   F   F   T
  0.6666999999999987  0.1666999999999987  0.3454333821050157   F   F   T
  0.6666999999999987  0.6666999999999987  0.3454333811301349   F   F   T
  0.8333000000000013 -0.0000000000000000  0.3454332521581399   F   F   T
  0.8333000000000013  0.5000000000000000  0.3454332522953201   F   F   T
 -0.0000000000000000 -0.0000000000000000  0.3968429092543119   F   F   T
  0.0000000000000000  0.5000000000000000  0.3968429090958830   F   F   T
  0.1666999999999987  0.3333000000000013  0.3968447544795476   F   F   T
  0.1666999999999987  0.8333000000000013  0.3968447547841683   F   F   T
  0.3333000000000013  0.1666999999999987  0.3968447541545819   F   F   T
  0.3333000000000013  0.6666999999999987  0.3968447544527928   F   F   T
  0.5000000000000000 -0.0000000000000000  0.3968429089249285   F   F   T
  0.5000000000000000  0.5000000000000000  0.3968429085599030   F   F   T
  0.6666999999999987  0.3333000000000013  0.3968447550106521   F   F   T
  0.6666999999999987  0.8333000000000013  0.3968447545007264   F   F   T
  0.8333000000000013  0.1666999999999987  0.3968447545200879   F   F   T
  0.8333000000000013  0.6666999999999987  0.3968447543637752   F   F   T
 -0.0000000000000000  0.3333000000000013  0.4482156028408675   F   F   T
  0.0000000000000000  0.8333000000000013  0.4482156033720574   F   F   T
  0.1666999999999987  0.1666999999999987  0.4482156078444800   F   F   T
  0.1666999999999987  0.6666999999999987  0.4482156084311110   F   F   T
  0.3333000000000013 -0.0000000000000000  0.4482156030414604   F   F   T
  0.3333000000000013  0.5000000000000000  0.4482156037240294   F   F   T
  0.5000000000000000  0.3333000000000013  0.4482156032305074   F   F   T
  0.5000000000000000  0.8333000000000013  0.4482156039850793   F   F   T
  0.6666999999999987  0.1666999999999987  0.4482156077515427   F   F   T
  0.6666999999999987  0.6666999999999987  0.4482156077372258   F   F   T
  0.8333000000000013 -0.0000000000000000  0.4482156034006483   F   F   T
  0.8333000000000013  0.5000000000000000  0.4482156033021223   F   F   T
  0.0000000000000000  0.0000000000000000  0.4994572254525920   F   F   T
 -0.0000000000000000  0.5000000000000000  0.4994572262762634   F   F   T
  0.1666999999999987  0.3333000000000013  0.4994574178446565   F   F   T
  0.1666999999999987  0.8333000000000013  0.4994574177123224   F   F   T
  0.3333000000000013  0.1666999999999987  0.4994574142293108   F   F   T
  0.3333000000000013  0.6666999999999987  0.4994574198704289   F   F   T
  0.5000000000000000 -0.0000000000000000  0.4994572265341449   F   F   T
  0.5000000000000000  0.5000000000000000  0.4994572269909250   F   F   T
  0.6666999999999987  0.3333000000000013  0.4994574170354367   F   F   T
  0.6666999999999987  0.8333000000000013  0.4994574182938887   F   F   T
  0.8333000000000013  0.1666999999999987  0.4994574145469098   F   F   T
  0.8333000000000013  0.6666999999999987  0.4994574145011552   F   F   T
 -0.0000000000000000  0.3333000000000013  0.5506927304689565   F   F   T
 -0.0000000000000000  0.8333000000000013  0.5506927306270016   F   F   T
  0.1666999999999987  0.1666999999999987  0.5506926994954855   F   F   T
  0.1666999999999987  0.6666999999999987  0.5506927115297201   F   F   T
  0.3333000000000013 -0.0000000000000000  0.5506927303009080   F   F   T
  0.3333000000000013  0.5000000000000000  0.5506927429605214   F   F   T
  0.5000000000000000  0.3333000000000013  0.5506927307231448   F   F   T
  0.5000000000000000  0.8333000000000013  0.5506927427221240   F   F   T
  0.6666999999999987  0.1666999999999987  0.5506926995094833   F   F   T
  0.6666999999999987  0.6666999999999987  0.5506926995888617   F   F   T
  0.8333000000000013 -0.0000000000000000  0.5506927307099233   F   F   T
  0.8333000000000013  0.5000000000000000  0.5506927303876570   F   F   T
 -0.0000000000000000  0.0000000000000000  0.6019155519141608   F   F   T
  0.0000000000000000  0.5000000000000000  0.6019155538259238   F   F   T
  0.1666999999999987  0.3333000000000013  0.6019157799024389   F   F   T
  0.1666999999999987  0.8333000000000013  0.6019157800973860   F   F   T
  0.3333000000000013  0.1666999999999987  0.6019157423498668   F   F   T
  0.3333000000000013  0.6666999999999987  0.6019157844725934   F   F   T
  0.5000000000000000  0.0000000000000000  0.6019155535676661   F   F   T
  0.5000000000000000  0.5000000000000000  0.6019155540381481   F   F   T
  0.6666999999999987  0.3333000000000013  0.6019157778739006   F   F   T
  0.6666999999999987  0.8333000000000013  0.6019157799836733   F   F   T
  0.8333000000000013  0.1666999999999987  0.6019157425913728   F   F   T
  0.8333000000000013  0.6666999999999987  0.6019157423855500   F   F   T
 -0.0000000000000000  0.3333000000000013  0.6532177439534493   F   F   T
  0.0000000000000000  0.8333000000000013  0.6532177444037056   F   F   T
  0.1666999999999987  0.1666999999999987  0.6532179995464348   F   F   T
  0.1666999999999987  0.6666999999999987  0.6532180109120452   F   F   T
  0.3333000000000013 -0.0000000000000000  0.6532177439690664   F   F   T
  0.3333000000000013  0.5000000000000000  0.6532177563268793   F   F   T
  0.5000000000000000  0.3333000000000013  0.6532177442614956   F   F   T
  0.5000000000000000  0.8333000000000013  0.6532177562018666   F   F   T
  0.6666999999999987  0.1666999999999987  0.6532179992632303   F   F   T
  0.6666999999999987  0.6666999999999987  0.6532179987216754   F   F   T
  0.8333000000000013  0.0000000000000000  0.6532177440832458   F   F   T
  0.8333000000000013  0.5000000000000000  0.6532177444120586   F   F   T
  0.0000000000000000  0.0000000000000000  0.7045758148815846   F   F   T
  0.0000000000000000  0.5000000000000000  0.7045758161386300   F   F   T
  0.1666999999999987  0.3333000000000013  0.7045759792315318   F   F   T
  0.1666999999999987  0.8333000000000013  0.7045759795245459   F   F   T
  0.3333000000000013  0.1666999999999987  0.7045759757437542   F   F   T
  0.3333000000000013  0.6666999999999987  0.7045759811175633   F   F   T
  0.5000000000000000  0.0000000000000000  0.7045758162297128   F   F   T
  0.5000000000000000  0.5000000000000000  0.7045758161288936   F   F   T
  0.6666999999999987  0.3333000000000013  0.7045759782000571   F   F   T
  0.6666999999999987  0.8333000000000013  0.7045759792136089   F   F   T
  0.8333000000000013  0.1666999999999987  0.7045759755111687   F   F   T
  0.8333000000000013  0.6666999999999987  0.7045759757033327   F   F   T
 -0.0000000000000000  0.3333000000000013  0.7560345646239656   F   F   T
  0.0000000000000000  0.8333000000000013  0.7560345647294133   F   F   T
  0.1666999999999987  0.1666999999999987  0.7560344660944441   F   F   T
  0.1666999999999987  0.6666999999999987  0.7560344667850624   F   F   T
  0.3333000000000013  0.0000000000000000  0.7560345647777996   F   F   T
  0.3333000000000013  0.5000000000000000  0.7560345655240318   F   F   T
  0.5000000000000000  0.3333000000000013  0.7560345648119300   F   F   T
  0.5000000000000000  0.8333000000000013  0.7560345654003529   F   F   T
  0.6666999999999987  0.1666999999999987  0.7560344659009690   F   F   T
  0.6666999999999987  0.6666999999999987  0.7560344661264993   F   F   T
  0.8333000000000013  0.0000000000000000  0.7560345646327373   F   F   T
  0.8333000000000013  0.5000000000000000  0.7560345648880552   F   F   T
  0.0000000000000000  0.0000000000000000  0.8075161255463427   F   F   T
 -0.0000000000000000  0.5000000000000000  0.8075161255730374   F   F   T
  0.1666999999999987  0.3333000000000013  0.8075169360609068   F   F   T
  0.1666999999999987  0.8333000000000013  0.8075169364947578   F   F   T
  0.3333000000000013  0.1666999999999987  0.8075169359380978   F   F   T
  0.3333000000000013  0.6666999999999987  0.8075169362845094   F   F   T
  0.5000000000000000  0.0000000000000000  0.8075161252628597   F   F   T
  0.5000000000000000  0.5000000000000000  0.8075161257236890   F   F   T
  0.6666999999999987  0.3333000000000013  0.8075169360385475   F   F   T
  0.6666999999999987  0.8333000000000013  0.8075169362982670   F   F   T
  0.8333000000000013  0.1666999999999987  0.8075169358837824   F   F   T
  0.8333000000000013  0.6666999999999987  0.8075169360420676   F   F   T
 -0.0000000000000000  0.3333000000000013  0.8590332623779233   F   F   T
 -0.0000000000000000  0.8333000000000013  0.8590332623150538   F   F   T
  0.1666999999999987  0.1666999999999987  0.8590330467879446   F   F   T
  0.1666999999999987  0.6666999999999987  0.8590330466740629   F   F   T
  0.3333000000000013 -0.0000000000000000  0.8590332625698223   F   F   T
  0.3333000000000013  0.5000000000000000  0.8590332622237470   F   F   T
  0.5000000000000000  0.3333000000000013  0.8590332616704683   F   F   T
  0.5000000000000000  0.8333000000000013  0.8590332621106644   F   F   T
  0.6666999999999987  0.1666999999999987  0.8590330464667895   F   F   T
  0.6666999999999987  0.6666999999999987  0.8590330468705929   F   F   T
  0.8333000000000013 -0.0000000000000000  0.8590332620219172   F   F   T
  0.8333000000000013  0.5000000000000000  0.8590332621064595   F   F   T
  0.0000000000000000  0.0000000000000000  0.9106287949506970   F   F   T
 -0.0000000000000000  0.5000000000000000  0.9106287951497160   F   F   T
  0.1666999999999987  0.3333000000000013  0.9106296465559405   F   F   T
  0.1666999999999987  0.8333000000000013  0.9106296463833249   F   F   T
  0.3333000000000013  0.1666999999999987  0.9106296463325919   F   F   T
  0.3333000000000013  0.6666999999999987  0.9106296455685681   F   F   T
  0.5000000000000000 -0.0000000000000000  0.9106287946425926   F   F   T
  0.5000000000000000  0.5000000000000000  0.9106287942210286   F   F   T
  0.6666999999999987  0.3333000000000013  0.9106296461181489   F   F   T
  0.6666999999999987  0.8333000000000013  0.9106296458209949   F   F   T
  0.8333000000000013  0.1666999999999987  0.9106296463369443   F   F   T
  0.8333000000000013  0.6666999999999987  0.9106296463291331   F   F   T
  0.0000000000000000  0.3333000000000013  0.9623007394339858   F   F   T
 -0.0000000000000000  0.8333000000000013  0.9623007398950463   F   F   T
  0.1666999999999987  0.1666999999999987  0.9622963433120355   F   F   T
  0.1666999999999987  0.6666999999999987  0.9622963423321829   F   F   T
  0.3333000000000013 -0.0000000000000000  0.9623007405899535   F   F   T
  0.3333000000000013  0.5000000000000000  0.9623007400817198   F   F   T
  0.5000000000000000  0.3333000000000013  0.9623007404000129   F   F   T
  0.5000000000000000  0.8333000000000013  0.9623007403877157   F   F   T
  0.6666999999999987  0.1666999999999987  0.9622963429693775   F   F   T
  0.6666999999999987  0.6666999999999987  0.9622963428744831   F   F   T
  0.8333000000000013 -0.0000000000000000  0.9623007401093282   F   F   T
  0.8333000000000013  0.5000000000000000  0.9623007390715510   F   F   T
 
  0.00000000E+00  0.00000000E+00  0.00000000E+00
  0.00000000E+00  0.00000000E+00  0.00000000E+00
  0.00000000E+00  0.00000000E+00  0.00000000E+00
  0.00000000E+00  0.00000000E+00  0.00000000E+00
  0.00000000E+00  0.00000000E+00  0.00000000E+00
  0.00000000E+00  0.00000000E+00  0.00000000E+00
  0.00000000E+00  0.00000000E+00  0.00000000E+00
  0.00000000E+00  0.00000000E+00  0.00000000E+00
  0.00000000E+00  0.00000000E+00  0.00000000E+00
  0.00000000E+00  0.00000000E+00  0.00000000E+00
  0.00000000E+00  0.00000000E+00  0.00000000E+00
  0.00000000E+00  0.00000000E+00  0.00000000E+00
  0.00000000E+00  0.00000000E+00  0.00000000E+00
  0.00000000E+00  0.00000000E+00  0.00000000E+00
  0.00000000E+00  0.00000000E+00  0.00000000E+00
  0.00000000E+00  0.00000000E+00  0.00000000E+00
  0.00000000E+00  0.00000000E+00  0.00000000E+00
  0.00000000E+00  0.00000000E+00  0.00000000E+00
  0.00000000E+00  0.00000000E+00  0.00000000E+00
  0.00000000E+00  0.00000000E+00  0.00000000E+00
  0.00000000E+00  0.00000000E+00  0.00000000E+00
  0.00000000E+00  0.00000000E+00  0.00000000E+00
  0.00000000E+00  0.00000000E+00  0.00000000E+00
  0.00000000E+00  0.00000000E+00  0.00000000E+00
  0.00000000E+00  0.00000000E+00  0.00000000E+00
  0.00000000E+00  0.00000000E+00  0.00000000E+00
  0.00000000E+00  0.00000000E+00  0.00000000E+00
  0.00000000E+00  0.00000000E+00  0.00000000E+00
  0.00000000E+00  0.00000000E+00  0.00000000E+00
  0.00000000E+00  0.00000000E+00  0.00000000E+00
  0.00000000E+00  0.00000000E+00  0.00000000E+00
  0.00000000E+00  0.00000000E+00  0.00000000E+00
  0.00000000E+00  0.00000000E+00  0.00000000E+00
  0.00000000E+00  0.00000000E+00  0.00000000E+00
  0.00000000E+00  0.00000000E+00  0.00000000E+00
  0.00000000E+00  0.00000000E+00  0.00000000E+00
  0.00000000E+00  0.00000000E+00  0.00000000E+00
  0.00000000E+00  0.00000000E+00  0.00000000E+00
  0.00000000E+00  0.00000000E+00  0.00000000E+00
  0.00000000E+00  0.00000000E+00  0.00000000E+00
  0.00000000E+00  0.00000000E+00  0.00000000E+00
  0.00000000E+00  0.00000000E+00  0.00000000E+00
  0.00000000E+00  0.00000000E+00  0.00000000E+00
  0.00000000E+00  0.00000000E+00  0.00000000E+00
  0.00000000E+00  0.00000000E+00  0.00000000E+00
  0.00000000E+00  0.00000000E+00  0.00000000E+00
  0.00000000E+00  0.00000000E+00  0.00000000E+00
  0.00000000E+00  0.00000000E+00  0.00000000E+00
  0.00000000E+00  0.00000000E+00  0.00000000E+00
  0.00000000E+00  0.00000000E+00  0.00000000E+00
  0.00000000E+00  0.00000000E+00  0.00000000E+00
  0.00000000E+00  0.00000000E+00  0.00000000E+00
  0.00000000E+00  0.00000000E+00  0.00000000E+00
  0.00000000E+00  0.00000000E+00  0.00000000E+00
  0.00000000E+00  0.00000000E+00  0.00000000E+00
  0.00000000E+00  0.00000000E+00  0.00000000E+00
  0.00000000E+00  0.00000000E+00  0.00000000E+00
  0.00000000E+00  0.00000000E+00  0.00000000E+00
  0.00000000E+00  0.00000000E+00  0.00000000E+00
  0.00000000E+00  0.00000000E+00  0.00000000E+00
  0.00000000E+00  0.00000000E+00  0.00000000E+00
  0.00000000E+00  0.00000000E+00  0.00000000E+00
  0.00000000E+00  0.00000000E+00  0.00000000E+00
  0.00000000E+00  0.00000000E+00  0.00000000E+00
  0.00000000E+00  0.00000000E+00  0.00000000E+00
  0.00000000E+00  0.00000000E+00  0.00000000E+00
  0.00000000E+00  0.00000000E+00  0.00000000E+00
  0.00000000E+00  0.00000000E+00  0.00000000E+00
  0.00000000E+00  0.00000000E+00  0.00000000E+00
  0.00000000E+00  0.00000000E+00  0.00000000E+00
  0.00000000E+00  0.00000000E+00  0.00000000E+00
  0.00000000E+00  0.00000000E+00  0.00000000E+00
  0.00000000E+00  0.00000000E+00  0.00000000E+00
  0.00000000E+00  0.00000000E+00  0.00000000E+00
  0.00000000E+00  0.00000000E+00  0.00000000E+00
  0.00000000E+00  0.00000000E+00  0.00000000E+00
  0.00000000E+00  0.00000000E+00  0.00000000E+00
  0.00000000E+00  0.00000000E+00  0.00000000E+00
  0.00000000E+00  0.00000000E+00  0.00000000E+00
  0.00000000E+00  0.00000000E+00  0.00000000E+00
  0.00000000E+00  0.00000000E+00  0.00000000E+00
  0.00000000E+00  0.00000000E+00  0.00000000E+00
  0.00000000E+00  0.00000000E+00  0.00000000E+00
  0.00000000E+00  0.00000000E+00  0.00000000E+00
  0.00000000E+00  0.00000000E+00  0.00000000E+00
  0.00000000E+00  0.00000000E+00  0.00000000E+00
  0.00000000E+00  0.00000000E+00  0.00000000E+00
  0.00000000E+00  0.00000000E+00  0.00000000E+00
  0.00000000E+00  0.00000000E+00  0.00000000E+00
  0.00000000E+00  0.00000000E+00  0.00000000E+00
  0.00000000E+00  0.00000000E+00  0.00000000E+00
  0.00000000E+00  0.00000000E+00  0.00000000E+00
  0.00000000E+00  0.00000000E+00  0.00000000E+00
  0.00000000E+00  0.00000000E+00  0.00000000E+00
  0.00000000E+00  0.00000000E+00  0.00000000E+00
  0.00000000E+00  0.00000000E+00  0.00000000E+00
  0.00000000E+00  0.00000000E+00  0.00000000E+00
  0.00000000E+00  0.00000000E+00  0.00000000E+00
  0.00000000E+00  0.00000000E+00  0.00000000E+00
  0.00000000E+00  0.00000000E+00  0.00000000E+00
  0.00000000E+00  0.00000000E+00  0.00000000E+00
  0.00000000E+00  0.00000000E+00  0.00000000E+00
  0.00000000E+00  0.00000000E+00  0.00000000E+00
  0.00000000E+00  0.00000000E+00  0.00000000E+00
  0.00000000E+00  0.00000000E+00  0.00000000E+00
  0.00000000E+00  0.00000000E+00  0.00000000E+00
  0.00000000E+00  0.00000000E+00  0.00000000E+00
  0.00000000E+00  0.00000000E+00  0.00000000E+00
  0.00000000E+00  0.00000000E+00  0.00000000E+00
  0.00000000E+00  0.00000000E+00  0.00000000E+00
  0.00000000E+00  0.00000000E+00  0.00000000E+00
  0.00000000E+00  0.00000000E+00  0.00000000E+00
  0.00000000E+00  0.00000000E+00  0.00000000E+00
  0.00000000E+00  0.00000000E+00  0.00000000E+00
  0.00000000E+00  0.00000000E+00  0.00000000E+00
  0.00000000E+00  0.00000000E+00  0.00000000E+00
  0.00000000E+00  0.00000000E+00  0.00000000E+00
  0.00000000E+00  0.00000000E+00  0.00000000E+00
  0.00000000E+00  0.00000000E+00  0.00000000E+00
  0.00000000E+00  0.00000000E+00  0.00000000E+00
  0.00000000E+00  0.00000000E+00  0.00000000E+00
  0.00000000E+00  0.00000000E+00  0.00000000E+00
  0.00000000E+00  0.00000000E+00  0.00000000E+00
  0.00000000E+00  0.00000000E+00  0.00000000E+00
  0.00000000E+00  0.00000000E+00  0.00000000E+00
  0.00000000E+00  0.00000000E+00  0.00000000E+00
  0.00000000E+00  0.00000000E+00  0.00000000E+00
  0.00000000E+00  0.00000000E+00  0.00000000E+00
  0.00000000E+00  0.00000000E+00  0.00000000E+00
  0.00000000E+00  0.00000000E+00  0.00000000E+00
  0.00000000E+00  0.00000000E+00  0.00000000E+00
  0.00000000E+00  0.00000000E+00  0.00000000E+00
  0.00000000E+00  0.00000000E+00  0.00000000E+00
  0.00000000E+00  0.00000000E+00  0.00000000E+00
  0.00000000E+00  0.00000000E+00  0.00000000E+00
  0.00000000E+00  0.00000000E+00  0.00000000E+00
  0.00000000E+00  0.00000000E+00  0.00000000E+00
  0.00000000E+00  0.00000000E+00  0.00000000E+00
  0.00000000E+00  0.00000000E+00  0.00000000E+00
  0.00000000E+00  0.00000000E+00  0.00000000E+00
  0.00000000E+00  0.00000000E+00  0.00000000E+00
  0.00000000E+00  0.00000000E+00  0.00000000E+00
  0.00000000E+00  0.00000000E+00  0.00000000E+00
  0.00000000E+00  0.00000000E+00  0.00000000E+00
  0.00000000E+00  0.00000000E+00  0.00000000E+00
  0.00000000E+00  0.00000000E+00  0.00000000E+00
  0.00000000E+00  0.00000000E+00  0.00000000E+00
  0.00000000E+00  0.00000000E+00  0.00000000E+00
  0.00000000E+00  0.00000000E+00  0.00000000E+00
  0.00000000E+00  0.00000000E+00  0.00000000E+00
  0.00000000E+00  0.00000000E+00  0.00000000E+00
  0.00000000E+00  0.00000000E+00  0.00000000E+00
  0.00000000E+00  0.00000000E+00  0.00000000E+00
  0.00000000E+00  0.00000000E+00  0.00000000E+00
  0.00000000E+00  0.00000000E+00  0.00000000E+00
  0.00000000E+00  0.00000000E+00  0.00000000E+00
  0.00000000E+00  0.00000000E+00  0.00000000E+00
  0.00000000E+00  0.00000000E+00  0.00000000E+00
  0.00000000E+00  0.00000000E+00  0.00000000E+00
  0.00000000E+00  0.00000000E+00  0.00000000E+00
  0.00000000E+00  0.00000000E+00  0.00000000E+00
  0.00000000E+00  0.00000000E+00  0.00000000E+00
  0.00000000E+00  0.00000000E+00  0.00000000E+00
  0.00000000E+00  0.00000000E+00  0.00000000E+00
  0.00000000E+00  0.00000000E+00  0.00000000E+00
  0.00000000E+00  0.00000000E+00  0.00000000E+00
  0.00000000E+00  0.00000000E+00  0.00000000E+00
  0.00000000E+00  0.00000000E+00  0.00000000E+00
  0.00000000E+00  0.00000000E+00  0.00000000E+00
  0.00000000E+00  0.00000000E+00  0.00000000E+00
  0.00000000E+00  0.00000000E+00  0.00000000E+00
  0.00000000E+00  0.00000000E+00  0.00000000E+00
  0.00000000E+00  0.00000000E+00  0.00000000E+00
  0.00000000E+00  0.00000000E+00  0.00000000E+00
  0.00000000E+00  0.00000000E+00  0.00000000E+00
  0.00000000E+00  0.00000000E+00  0.00000000E+00
  0.00000000E+00  0.00000000E+00  0.00000000E+00
  0.00000000E+00  0.00000000E+00  0.00000000E+00
  0.00000000E+00  0.00000000E+00  0.00000000E+00
  0.00000000E+00  0.00000000E+00  0.00000000E+00
  0.00000000E+00  0.00000000E+00  0.00000000E+00
  0.00000000E+00  0.00000000E+00  0.00000000E+00
  0.00000000E+00  0.00000000E+00  0.00000000E+00
  0.00000000E+00  0.00000000E+00  0.00000000E+00
  0.00000000E+00  0.00000000E+00  0.00000000E+00
  0.00000000E+00  0.00000000E+00  0.00000000E+00
  0.00000000E+00  0.00000000E+00  0.00000000E+00
  0.00000000E+00  0.00000000E+00  0.00000000E+00
  0.00000000E+00  0.00000000E+00  0.00000000E+00
  0.00000000E+00  0.00000000E+00  0.00000000E+00
  0.00000000E+00  0.00000000E+00  0.00000000E+00
  0.00000000E+00  0.00000000E+00  0.00000000E+00
  0.00000000E+00  0.00000000E+00  0.00000000E+00
  0.00000000E+00  0.00000000E+00  0.00000000E+00
  0.00000000E+00  0.00000000E+00  0.00000000E+00
  0.00000000E+00  0.00000000E+00  0.00000000E+00
  0.00000000E+00  0.00000000E+00  0.00000000E+00
  0.00000000E+00  0.00000000E+00  0.00000000E+00
  0.00000000E+00  0.00000000E+00  0.00000000E+00
  0.00000000E+00  0.00000000E+00  0.00000000E+00
  0.00000000E+00  0.00000000E+00  0.00000000E+00
  0.00000000E+00  0.00000000E+00  0.00000000E+00
  0.00000000E+00  0.00000000E+00  0.00000000E+00
  0.00000000E+00  0.00000000E+00  0.00000000E+00
  0.00000000E+00  0.00000000E+00  0.00000000E+00
  0.00000000E+00  0.00000000E+00  0.00000000E+00
  0.00000000E+00  0.00000000E+00  0.00000000E+00
  0.00000000E+00  0.00000000E+00  0.00000000E+00
  0.00000000E+00  0.00000000E+00  0.00000000E+00
  0.00000000E+00  0.00000000E+00  0.00000000E+00
  0.00000000E+00  0.00000000E+00  0.00000000E+00
  0.00000000E+00  0.00000000E+00  0.00000000E+00
  0.00000000E+00  0.00000000E+00  0.00000000E+00
  0.00000000E+00  0.00000000E+00  0.00000000E+00
  0.00000000E+00  0.00000000E+00  0.00000000E+00
  0.00000000E+00  0.00000000E+00  0.00000000E+00
  0.00000000E+00  0.00000000E+00  0.00000000E+00
  0.00000000E+00  0.00000000E+00  0.00000000E+00
  0.00000000E+00  0.00000000E+00  0.00000000E+00
  0.00000000E+00  0.00000000E+00  0.00000000E+00
  0.00000000E+00  0.00000000E+00  0.00000000E+00
  0.00000000E+00  0.00000000E+00  0.00000000E+00
  0.00000000E+00  0.00000000E+00  0.00000000E+00
  0.00000000E+00  0.00000000E+00  0.00000000E+00
  0.00000000E+00  0.00000000E+00  0.00000000E+00
  0.00000000E+00  0.00000000E+00  0.00000000E+00
  0.00000000E+00  0.00000000E+00  0.00000000E+00
  0.00000000E+00  0.00000000E+00  0.00000000E+00
  0.00000000E+00  0.00000000E+00  0.00000000E+00
  0.00000000E+00  0.00000000E+00  0.00000000E+00
  0.00000000E+00  0.00000000E+00  0.00000000E+00
  0.00000000E+00  0.00000000E+00  0.00000000E+00
  0.00000000E+00  0.00000000E+00  0.00000000E+00
  0.00000000E+00  0.00000000E+00  0.00000000E+00
  0.00000000E+00  0.00000000E+00  0.00000000E+00
  0.00000000E+00  0.00000000E+00  0.00000000E+00
  0.00000000E+00  0.00000000E+00  0.00000000E+00
  0.00000000E+00  0.00000000E+00  0.00000000E+00
  0.00000000E+00  0.00000000E+00  0.00000000E+00
  0.00000000E+00  0.00000000E+00  0.00000000E+00
