hcp-Mg
   11.0700000000000
     1.0000000000000000    0.0000000000000000    0.0000000000000000
    -0.5000000000000000    0.8660000000000000    0.0000000000000000
     0.0000000000000000    0.0000000000000000    4.6710000000000003
   Zn  Mg
     24  216
Selective dynamics
Direct
  0.0000  0.0000  0.0000  F  F  T
  0.0000  0.5000  0.0000  F  F  T
  0.1667  0.3333  0.0000  F  F  T
  0.1667  0.8333  0.0000  F  F  T
  0.3333  0.1667  0.0000  F  F  T
  0.3333  0.6667  0.0000  F  F  T
  0.5000  0.0000  0.0000  F  F  T
  0.5000  0.5000  0.0000  F  F  T
  0.6667  0.3333  0.0000  F  F  T
  0.6667  0.8333  0.0000  F  F  T
  0.8333  0.1667  0.0000  F  F  T
  0.8333  0.6667  0.0000  F  F  T
  0.0000  0.3333  0.0500  F  F  T
  0.0000  0.8333  0.0500  F  F  T
  0.1667  0.1667  0.0500  F  F  T
  0.1667  0.6667  0.0500  F  F  T
  0.3333  0.0000  0.0500  F  F  T
  0.3333  0.5000  0.0500  F  F  T
  0.5000  0.3333  0.0500  F  F  T
  0.5000  0.8333  0.0500  F  F  T
  0.6667  0.1667  0.0500  F  F  T
  0.6667  0.6667  0.0500  F  F  T
  0.8333  0.0000  0.0500  F  F  T
  0.8333  0.5000  0.0500  F  F  T
  0.0000  0.0000  0.1000  F  F  T
  0.0000  0.5000  0.1000  F  F  T
  0.1667  0.3333  0.1000  F  F  T
  0.1667  0.8333  0.1000  F  F  T
  0.3333  0.1667  0.1000  F  F  T
  0.3333  0.6667  0.1000  F  F  T
  0.5000  0.0000  0.1000  F  F  T
  0.5000  0.5000  0.1000  F  F  T
  0.6667  0.3333  0.1000  F  F  T
  0.6667  0.8333  0.1000  F  F  T
  0.8333  0.1667  0.1000  F  F  T
  0.8333  0.6667  0.1000  F  F  T
  0.0000  0.3333  0.1500  F  F  T
  0.0000  0.8333  0.1500  F  F  T
  0.1667  0.1667  0.1500  F  F  T
  0.1667  0.6667  0.1500  F  F  T
  0.3333  0.0000  0.1500  F  F  T
  0.3333  0.5000  0.1500  F  F  T
  0.5000  0.3333  0.1500  F  F  T
  0.5000  0.8333  0.1500  F  F  T
  0.6667  0.1667  0.1500  F  F  T
  0.6667  0.6667  0.1500  F  F  T
  0.8333  0.0000  0.1500  F  F  T
  0.8333  0.5000  0.1500  F  F  T
  0.0000  0.0000  0.2000  F  F  T
  0.0000  0.5000  0.2000  F  F  T
  0.1667  0.3333  0.2000  F  F  T
  0.1667  0.8333  0.2000  F  F  T
  0.3333  0.1667  0.2000  F  F  T
  0.3333  0.6667  0.2000  F  F  T
  0.5000  0.0000  0.2000  F  F  T
  0.5000  0.5000  0.2000  F  F  T
  0.6667  0.3333  0.2000  F  F  T
  0.6667  0.8333  0.2000  F  F  T
  0.8333  0.1667  0.2000  F  F  T
  0.8333  0.6667  0.2000  F  F  T
  0.0000  0.3333  0.2500  F  F  T
  0.0000  0.8333  0.2500  F  F  T
  0.1667  0.1667  0.2500  F  F  T
  0.1667  0.6667  0.2500  F  F  T
  0.3333  0.0000  0.2500  F  F  T
  0.3333  0.5000  0.2500  F  F  T
  0.5000  0.3333  0.2500  F  F  T
  0.5000  0.8333  0.2500  F  F  T
  0.6667  0.1667  0.2500  F  F  T
  0.6667  0.6667  0.2500  F  F  T
  0.8333  0.0000  0.2500  F  F  T
  0.8333  0.5000  0.2500  F  F  T
  0.0000  0.0000  0.3000  F  F  T
  0.0000  0.5000  0.3000  F  F  T
  0.1667  0.3333  0.3000  F  F  T
  0.1667  0.8333  0.3000  F  F  T
  0.3333  0.1667  0.3000  F  F  T
  0.3333  0.6667  0.3000  F  F  T
  0.5000  0.0000  0.3000  F  F  T
  0.5000  0.5000  0.3000  F  F  T
  0.6667  0.3333  0.3000  F  F  T
  0.6667  0.8333  0.3000  F  F  T
  0.8333  0.1667  0.3000  F  F  T
  0.8333  0.6667  0.3000  F  F  T
  0.0000  0.3333  0.3500  F  F  T
  0.0000  0.8333  0.3500  F  F  T
  0.1667  0.1667  0.3500  F  F  T
  0.1667  0.6667  0.3500  F  F  T
  0.3333  0.0000  0.3500  F  F  T
  0.3333  0.5000  0.3500  F  F  T
  0.5000  0.3333  0.3500  F  F  T
  0.5000  0.8333  0.3500  F  F  T
  0.6667  0.1667  0.3500  F  F  T
  0.6667  0.6667  0.3500  F  F  T
  0.8333  0.0000  0.3500  F  F  T
  0.8333  0.5000  0.3500  F  F  T
  0.0000  0.0000  0.4000  F  F  T
  0.0000  0.5000  0.4000  F  F  T
  0.1667  0.3333  0.4000  F  F  T
  0.1667  0.8333  0.4000  F  F  T
  0.3333  0.1667  0.4000  F  F  T
  0.3333  0.6667  0.4000  F  F  T
  0.5000  0.0000  0.4000  F  F  T
  0.5000  0.5000  0.4000  F  F  T
  0.6667  0.3333  0.4000  F  F  T
  0.6667  0.8333  0.4000  F  F  T
  0.8333  0.1667  0.4000  F  F  T
  0.8333  0.6667  0.4000  F  F  T
  0.0000  0.3333  0.4500  F  F  T
  0.0000  0.8333  0.4500  F  F  T
  0.1667  0.1667  0.4500  F  F  T
  0.1667  0.6667  0.4500  F  F  T
  0.3333  0.0000  0.4500  F  F  T
  0.3333  0.5000  0.4500  F  F  T
  0.5000  0.3333  0.4500  F  F  T
  0.5000  0.8333  0.4500  F  F  T
  0.6667  0.1667  0.4500  F  F  T
  0.6667  0.6667  0.4500  F  F  T
  0.8333  0.0000  0.4500  F  F  T
  0.8333  0.5000  0.4500  F  F  T
  0.0000  0.0000  0.5000  F  F  T
  0.0000  0.5000  0.5000  F  F  T
  0.1667  0.3333  0.5000  F  F  T
  0.1667  0.8333  0.5000  F  F  T
  0.3333  0.1667  0.5000  F  F  T
  0.3333  0.6667  0.5000  F  F  T
  0.5000  0.0000  0.5000  F  F  T
  0.5000  0.5000  0.5000  F  F  T
  0.6667  0.3333  0.5000  F  F  T
  0.6667  0.8333  0.5000  F  F  T
  0.8333  0.1667  0.5000  F  F  T
  0.8333  0.6667  0.5000  F  F  T
  0.0000  0.3333  0.5500  F  F  T
  0.0000  0.8333  0.5500  F  F  T
  0.1667  0.1667  0.5500  F  F  T
  0.1667  0.6667  0.5500  F  F  T
  0.3333  0.0000  0.5500  F  F  T
  0.3333  0.5000  0.5500  F  F  T
  0.5000  0.3333  0.5500  F  F  T
  0.5000  0.8333  0.5500  F  F  T
  0.6667  0.1667  0.5500  F  F  T
  0.6667  0.6667  0.5500  F  F  T
  0.8333  0.0000  0.5500  F  F  T
  0.8333  0.5000  0.5500  F  F  T
  0.0000  0.0000  0.6000  F  F  T
  0.0000  0.5000  0.6000  F  F  T
  0.1667  0.3333  0.6000  F  F  T
  0.1667  0.8333  0.6000  F  F  T
  0.3333  0.1667  0.6000  F  F  T
  0.3333  0.6667  0.6000  F  F  T
  0.5000  0.0000  0.6000  F  F  T
  0.5000  0.5000  0.6000  F  F  T
  0.6667  0.3333  0.6000  F  F  T
  0.6667  0.8333  0.6000  F  F  T
  0.8333  0.1667  0.6000  F  F  T
  0.8333  0.6667  0.6000  F  F  T
  0.0000  0.3333  0.6500  F  F  T
  0.0000  0.8333  0.6500  F  F  T
  0.1667  0.1667  0.6500  F  F  T
  0.1667  0.6667  0.6500  F  F  T
  0.3333  0.0000  0.6500  F  F  T
  0.3333  0.5000  0.6500  F  F  T
  0.5000  0.3333  0.6500  F  F  T
  0.5000  0.8333  0.6500  F  F  T
  0.6667  0.1667  0.6500  F  F  T
  0.6667  0.6667  0.6500  F  F  T
  0.8333  0.0000  0.6500  F  F  T
  0.8333  0.5000  0.6500  F  F  T
  0.0000  0.0000  0.7000  F  F  T
  0.0000  0.5000  0.7000  F  F  T
  0.1667  0.3333  0.7000  F  F  T
  0.1667  0.8333  0.7000  F  F  T
  0.3333  0.1667  0.7000  F  F  T
  0.3333  0.6667  0.7000  F  F  T
  0.5000  0.0000  0.7000  F  F  T
  0.5000  0.5000  0.7000  F  F  T
  0.6667  0.3333  0.7000  F  F  T
  0.6667  0.8333  0.7000  F  F  T
  0.8333  0.1667  0.7000  F  F  T
  0.8333  0.6667  0.7000  F  F  T
  0.0000  0.3333  0.7500  F  F  T
  0.0000  0.8333  0.7500  F  F  T
  0.1667  0.1667  0.7500  F  F  T
  0.1667  0.6667  0.7500  F  F  T
  0.3333  0.0000  0.7500  F  F  T
  0.3333  0.5000  0.7500  F  F  T
  0.5000  0.3333  0.7500  F  F  T
  0.5000  0.8333  0.7500  F  F  T
  0.6667  0.1667  0.7500  F  F  T
  0.6667  0.6667  0.7500  F  F  T
  0.8333  0.0000  0.7500  F  F  T
  0.8333  0.5000  0.7500  F  F  T
  0.0000  0.0000  0.8000  F  F  T
  0.0000  0.5000  0.8000  F  F  T
  0.1667  0.3333  0.8000  F  F  T
  0.1667  0.8333  0.8000  F  F  T
  0.3333  0.1667  0.8000  F  F  T
  0.3333  0.6667  0.8000  F  F  T
  0.5000  0.0000  0.8000  F  F  T
  0.5000  0.5000  0.8000  F  F  T
  0.6667  0.3333  0.8000  F  F  T
  0.6667  0.8333  0.8000  F  F  T
  0.8333  0.1667  0.8000  F  F  T
  0.8333  0.6667  0.8000  F  F  T
  0.0000  0.3333  0.8500  F  F  T
  0.0000  0.8333  0.8500  F  F  T
  0.1667  0.1667  0.8500  F  F  T
  0.1667  0.6667  0.8500  F  F  T
  0.3333  0.0000  0.8500  F  F  T
  0.3333  0.5000  0.8500  F  F  T
  0.5000  0.3333  0.8500  F  F  T
  0.5000  0.8333  0.8500  F  F  T
  0.6667  0.1667  0.8500  F  F  T
  0.6667  0.6667  0.8500  F  F  T
  0.8333  0.0000  0.8500  F  F  T
  0.8333  0.5000  0.8500  F  F  T
  0.0000  0.0000  0.9000  F  F  T
  0.0000  0.5000  0.9000  F  F  T
  0.1667  0.3333  0.9000  F  F  T
  0.1667  0.8333  0.9000  F  F  T
  0.3333  0.1667  0.9000  F  F  T
  0.3333  0.6667  0.9000  F  F  T
  0.5000  0.0000  0.9000  F  F  T
  0.5000  0.5000  0.9000  F  F  T
  0.6667  0.3333  0.9000  F  F  T
  0.6667  0.8333  0.9000  F  F  T
  0.8333  0.1667  0.9000  F  F  T
  0.8333  0.6667  0.9000  F  F  T
  0.0000  0.3333  0.9500  F  F  T
  0.0000  0.8333  0.9500  F  F  T
  0.1667  0.1667  0.9500  F  F  T
  0.1667  0.6667  0.9500  F  F  T
  0.3333  0.0000  0.9500  F  F  T
  0.3333  0.5000  0.9500  F  F  T
  0.5000  0.3333  0.9500  F  F  T
  0.5000  0.8333  0.9500  F  F  T
  0.6667  0.1667  0.9500  F  F  T
  0.6667  0.6667  0.9500  F  F  T
  0.8333  0.0000  0.9500  F  F  T
  0.8333  0.5000  0.9500  F  F  T
