assert
  10.0000
    1.0000  0.1000  0.0000
    0.0000  1.0000  0.1000
    0.1000  0.0000  1.0000
H
  1
Direct
  0.0000  0.0000  0.0000