NaCl
  5.628
    1.0000  0.0000  0.0000
    0.0000  1.0000  0.0000
    0.0000  0.0000  1.0000
Na  Cl
  4   4
Direct
  0.0000  0.0000  0.0000
  0.0000  0.5000  0.5000
  0.5000  0.0000  0.5000
  0.5000  0.5000  0.0000
  0.5000  0.0000  0.0000
  0.0000  0.5000  0.0000
  0.0000  0.0000  0.5000
  0.5000  0.5000  0.5000
